p edge 71 772
e 1 2
e 1 4
e 1 5
e 1 19
e 1 27
e 1 29
e 1 30
e 1 31
e 1 33
e 1 34
e 1 37
e 1 44
e 1 46
e 1 48
e 1 51
e 1 52
e 1 58
e 1 59
e 1 60
e 1 62
e 1 63
e 1 69
e 1 70
e 2 5
e 2 7
e 2 8
e 2 9
e 2 10
e 2 13
e 2 15
e 2 17
e 2 19
e 2 24
e 2 26
e 2 27
e 2 29
e 2 30
e 2 32
e 2 36
e 2 39
e 2 40
e 2 41
e 2 43
e 2 44
e 2 46
e 2 53
e 2 57
e 2 68
e 2 70
e 3 9
e 3 13
e 3 16
e 3 21
e 3 23
e 3 24
e 3 25
e 3 28
e 3 30
e 3 35
e 3 36
e 3 41
e 3 43
e 3 49
e 3 53
e 3 69
e 3 70
e 4 17
e 4 21
e 4 23
e 4 25
e 4 30
e 4 34
e 4 40
e 4 43
e 4 50
e 4 52
e 4 59
e 4 61
e 4 65
e 4 66
e 5 8
e 5 13
e 5 15
e 5 16
e 5 25
e 5 29
e 5 30
e 5 37
e 5 38
e 5 39
e 5 43
e 5 45
e 5 46
e 5 48
e 5 50
e 5 57
e 5 61
e 5 62
e 5 70
e 6 7
e 6 9
e 6 10
e 6 11
e 6 14
e 6 15
e 6 19
e 6 20
e 6 28
e 6 30
e 6 31
e 6 33
e 6 34
e 6 41
e 6 45
e 6 49
e 6 55
e 6 58
e 6 59
e 6 61
e 6 64
e 6 65
e 7 8
e 7 14
e 7 17
e 7 21
e 7 24
e 7 27
e 7 33
e 7 35
e 7 40
e 7 44
e 7 55
e 7 57
e 7 59
e 7 60
e 7 62
e 7 65
e 7 66
e 7 67
e 7 68
e 7 69
e 7 71
e 8 9
e 8 11
e 8 15
e 8 16
e 8 19
e 8 26
e 8 30
e 8 37
e 8 38
e 8 43
e 8 46
e 8 51
e 8 53
e 8 54
e 8 60
e 8 64
e 8 68
e 8 71
e 9 14
e 9 15
e 9 16
e 9 17
e 9 19
e 9 20
e 9 24
e 9 28
e 9 29
e 9 30
e 9 34
e 9 35
e 9 36
e 9 37
e 9 39
e 9 40
e 9 48
e 9 50
e 9 51
e 9 53
e 9 55
e 9 67
e 9 71
e 10 14
e 10 15
e 10 22
e 10 23
e 10 24
e 10 25
e 10 26
e 10 27
e 10 29
e 10 37
e 10 43
e 10 44
e 10 47
e 10 48
e 10 59
e 10 63
e 10 65
e 10 67
e 10 71
e 11 14
e 11 31
e 11 32
e 11 35
e 11 36
e 11 42
e 11 52
e 11 62
e 11 66
e 11 69
e 11 71
e 12 15
e 12 16
e 12 19
e 12 21
e 12 26
e 12 28
e 12 30
e 12 31
e 12 32
e 12 33
e 12 41
e 12 42
e 12 43
e 12 45
e 12 49
e 12 51
e 12 53
e 12 55
e 12 56
e 12 57
e 12 58
e 12 59
e 12 61
e 12 62
e 12 64
e 12 66
e 12 68
e 13 17
e 13 19
e 13 20
e 13 22
e 13 23
e 13 26
e 13 28
e 13 31
e 13 34
e 13 37
e 13 38
e 13 47
e 13 49
e 13 51
e 13 57
e 13 66
e 13 69
e 13 70
e 14 20
e 14 23
e 14 25
e 14 29
e 14 32
e 14 33
e 14 35
e 14 36
e 14 38
e 14 48
e 14 50
e 14 51
e 14 55
e 14 57
e 14 68
e 14 70
e 15 17
e 15 25
e 15 26
e 15 27
e 15 33
e 15 36
e 15 37
e 15 42
e 15 46
e 15 47
e 15 48
e 15 50
e 15 54
e 15 57
e 15 59
e 15 62
e 15 64
e 15 66
e 16 17
e 16 23
e 16 25
e 16 26
e 16 27
e 16 30
e 16 31
e 16 36
e 16 37
e 16 42
e 16 55
e 16 56
e 16 61
e 16 65
e 16 68
e 16 69
e 17 18
e 17 19
e 17 24
e 17 26
e 17 28
e 17 33
e 17 34
e 17 35
e 17 37
e 17 39
e 17 42
e 17 46
e 17 49
e 17 52
e 17 59
e 17 65
e 17 68
e 17 69
e 18 19
e 18 31
e 18 35
e 18 40
e 18 41
e 18 46
e 18 49
e 18 51
e 18 54
e 18 55
e 18 57
e 18 58
e 18 61
e 18 64
e 18 68
e 18 70
e 19 20
e 19 21
e 19 23
e 19 24
e 19 25
e 19 28
e 19 34
e 19 36
e 19 39
e 19 43
e 19 48
e 19 49
e 19 51
e 19 52
e 19 54
e 19 56
e 19 57
e 19 60
e 19 61
e 19 62
e 19 66
e 19 67
e 19 69
e 20 21
e 20 22
e 20 31
e 20 33
e 20 35
e 20 38
e 20 39
e 20 46
e 20 52
e 20 57
e 20 61
e 20 62
e 20 63
e 20 64
e 20 66
e 21 26
e 21 29
e 21 37
e 21 38
e 21 42
e 21 43
e 21 47
e 21 48
e 21 49
e 21 55
e 21 57
e 21 62
e 21 65
e 21 67
e 21 71
e 22 23
e 22 26
e 22 28
e 22 30
e 22 34
e 22 36
e 22 39
e 22 41
e 22 44
e 22 55
e 22 58
e 22 62
e 22 67
e 22 71
e 23 27
e 23 28
e 23 35
e 23 40
e 23 42
e 23 47
e 23 52
e 23 53
e 23 56
e 23 57
e 23 58
e 23 60
e 23 62
e 23 63
e 23 64
e 23 68
e 23 71
e 24 25
e 24 27
e 24 28
e 24 31
e 24 32
e 24 34
e 24 40
e 24 44
e 24 50
e 24 53
e 24 54
e 24 55
e 24 58
e 24 59
e 24 66
e 24 70
e 25 27
e 25 29
e 25 33
e 25 36
e 25 39
e 25 44
e 25 48
e 25 49
e 25 52
e 25 59
e 25 64
e 25 66
e 25 68
e 25 69
e 25 71
e 26 27
e 26 30
e 26 32
e 26 38
e 26 40
e 26 48
e 26 61
e 26 63
e 26 66
e 27 28
e 27 32
e 27 38
e 27 42
e 27 48
e 27 49
e 27 50
e 27 53
e 27 61
e 27 62
e 27 68
e 27 69
e 27 70
e 28 33
e 28 39
e 28 47
e 28 48
e 28 52
e 28 58
e 28 59
e 28 60
e 28 66
e 29 31
e 29 32
e 29 35
e 29 37
e 29 39
e 29 42
e 29 45
e 29 50
e 29 56
e 29 59
e 29 63
e 30 33
e 30 34
e 30 36
e 30 38
e 30 41
e 30 44
e 30 46
e 30 48
e 30 50
e 30 52
e 30 62
e 30 63
e 30 66
e 30 68
e 30 71
e 31 34
e 31 41
e 31 43
e 31 44
e 31 45
e 31 50
e 31 51
e 31 59
e 31 60
e 31 67
e 32 35
e 32 40
e 32 41
e 32 44
e 32 49
e 32 58
e 32 59
e 32 60
e 32 62
e 32 63
e 32 65
e 32 71
e 33 41
e 33 48
e 33 53
e 33 58
e 33 62
e 33 66
e 34 35
e 34 46
e 34 49
e 34 50
e 34 51
e 34 56
e 34 57
e 34 59
e 34 61
e 34 64
e 34 70
e 34 71
e 35 39
e 35 44
e 35 47
e 35 57
e 35 69
e 36 42
e 36 53
e 36 54
e 36 55
e 36 64
e 36 67
e 36 68
e 36 69
e 36 71
e 37 38
e 37 39
e 37 42
e 37 47
e 37 49
e 37 54
e 37 56
e 37 60
e 37 61
e 37 62
e 37 65
e 37 66
e 38 47
e 38 49
e 38 53
e 38 54
e 38 57
e 38 62
e 38 63
e 38 67
e 38 71
e 39 45
e 39 48
e 39 52
e 39 53
e 39 54
e 39 58
e 39 65
e 39 68
e 40 42
e 40 48
e 40 58
e 40 60
e 40 61
e 40 63
e 40 64
e 40 68
e 41 42
e 41 44
e 41 47
e 41 48
e 41 51
e 41 53
e 41 55
e 41 58
e 41 67
e 41 69
e 41 70
e 42 52
e 42 54
e 42 56
e 42 62
e 42 65
e 42 67
e 42 68
e 42 70
e 43 46
e 43 47
e 43 50
e 43 51
e 43 53
e 43 54
e 43 63
e 43 67
e 44 45
e 44 47
e 44 48
e 44 54
e 44 55
e 44 60
e 44 62
e 44 67
e 44 70
e 45 49
e 45 52
e 45 54
e 45 55
e 45 57
e 45 61
e 45 63
e 45 64
e 45 67
e 45 68
e 45 70
e 46 47
e 46 48
e 46 50
e 46 51
e 46 54
e 46 56
e 46 67
e 46 68
e 46 69
e 46 70
e 47 50
e 47 51
e 47 54
e 47 57
e 47 58
e 47 59
e 47 60
e 47 62
e 47 64
e 47 67
e 47 68
e 47 69
e 48 49
e 48 50
e 48 53
e 48 54
e 48 55
e 48 60
e 48 61
e 48 62
e 48 67
e 48 68
e 48 70
e 49 50
e 49 54
e 49 55
e 49 58
e 49 59
e 49 62
e 49 64
e 49 65
e 49 69
e 50 51
e 50 52
e 50 54
e 50 55
e 50 57
e 50 59
e 50 61
e 50 62
e 50 65
e 50 67
e 51 53
e 51 63
e 51 66
e 52 55
e 52 56
e 52 57
e 52 59
e 52 61
e 52 66
e 53 54
e 53 63
e 53 65
e 53 67
e 54 60
e 54 62
e 54 63
e 54 64
e 54 66
e 54 70
e 54 71
e 55 57
e 55 58
e 55 59
e 55 62
e 55 67
e 55 69
e 55 70
e 55 71
e 56 59
e 56 60
e 56 62
e 56 64
e 56 66
e 56 67
e 56 69
e 57 58
e 57 59
e 57 60
e 57 61
e 57 66
e 59 62
e 59 66
e 59 67
e 59 68
e 59 69
e 59 71
e 60 66
e 60 68
e 61 64
e 61 66
e 61 70
e 62 64
e 62 69
e 62 71
e 63 68
e 63 70
e 64 65
e 64 68
e 65 66
e 65 67
e 65 68
e 65 69
e 65 70
e 66 71
e 68 69
e 68 70
e 68 71
e 69 70
